
Gurobi 7.5.2 (linux64) logging started Sat Jun 23 17:13:03 2018

Changed value of parameter LogFile to result/ilp/simNo_4-n_100-m_40-s_4-minVAF_0.05-cov_2000-k_1-fn_0.10-fp_0.0001-na_0.15.ILP.gurobiSolverLog
   Prev: gurobi.log  Default: 
Changed value of parameter TimeLimit to 86400.0
   Prev: 1e+100  Min: 0.0  Max: 1e+100  Default: 1e+100
Optimize a model with 1265601 rows, 330440 columns and 3489120 nonzeros
Variable types: 0 continuous, 330440 integer (330440 binary)
Coefficient statistics:
  Matrix range     [3e-03, 3e+00]
  Objective range  [4e-01, 9e+00]
  Bounds range     [1e+00, 1e+00]
  RHS range        [3e-01, 2e+00]
Found heuristic solution: objective -20190.15428
Presolve removed 307257 rows and 213650 columns (presolve time = 5s) ...
Presolve removed 328560 rows and 213650 columns (presolve time = 10s) ...
Presolve removed 329060 rows and 213650 columns (presolve time = 15s) ...
Presolve removed 329478 rows and 213650 columns (presolve time = 20s) ...
Presolve removed 329919 rows and 213650 columns (presolve time = 25s) ...
Presolve removed 330090 rows and 213650 columns (presolve time = 30s) ...
Presolve removed 330090 rows and 213650 columns (presolve time = 35s) ...
Presolve removed 330090 rows and 213650 columns (presolve time = 40s) ...
Presolve removed 330090 rows and 213650 columns (presolve time = 45s) ...
Presolve removed 330090 rows and 213650 columns (presolve time = 50s) ...
Presolve removed 330090 rows and 213650 columns (presolve time = 55s) ...
Presolve removed 330090 rows and 213650 columns (presolve time = 60s) ...
Presolve removed 330090 rows and 213650 columns
Presolve time: 63.38s
Presolved: 935511 rows, 116790 columns, 2596353 nonzeros
Variable types: 0 continuous, 116790 integer (116790 binary)
Presolve removed 0 rows and 0 columns (presolve time = 5s) ...
Presolved: 116790 rows, 1052301 columns, 2713143 nonzeros

Presolve removed 116790 rows and 1052301 columns

Root simplex log...

Iteration    Objective       Primal Inf.    Dual Inf.      Time
       0    7.2102992e+00   0.000000e+00   1.197260e+05     77s
   12000   -2.2873426e+02   0.000000e+00   7.273588e+04     80s
   23460   -2.9772239e+02   0.000000e+00   1.372874e+05     85s
   32637   -3.4615859e+02   0.000000e+00   7.696500e+03     90s
   40478   -3.7883671e+02   0.000000e+00   0.000000e+00     94s
   40478   -3.7883671e+02   0.000000e+00   0.000000e+00     98s

Root relaxation: objective -3.788367e+02, 40478 iterations, 30.69 seconds
Total elapsed time = 100.23s
Total elapsed time = 160.24s
Total elapsed time = 190.00s
Total elapsed time = 218.87s

    Nodes    |    Current Node    |     Objective Bounds      |     Work
 Expl Unexpl |  Obj  Depth IntInf | Incumbent    BestBd   Gap | It/Node Time

     0     0 -378.83671    0  828 -20190.154 -378.83671  98.1%     -  234s
H    0     0                    -419.0778615 -378.83671  9.60%     -  254s
     0     0 -383.91217    0  838 -419.07786 -383.91217  8.39%     -  286s
     0     0 -386.44990    0  763 -419.07786 -386.44990  7.79%     -  323s
     0     0 -386.84256    0  766 -419.07786 -386.84256  7.69%     -  350s
     0     0 -386.84256    0  764 -419.07786 -386.84256  7.69%     -  359s
     0     0 -387.93820    0  733 -419.07786 -387.93820  7.43%     -  380s
     0     0 -389.44080    0  721 -419.07786 -389.44080  7.07%     -  408s
     0     0 -389.44080    0  732 -419.07786 -389.44080  7.07%     -  423s
     0     0 -390.57482    0  789 -419.07786 -390.57482  6.80%     -  444s
     0     0 -390.68066    0  794 -419.07786 -390.68066  6.78%     -  464s
     0     0 -390.68066    0  800 -419.07786 -390.68066  6.78%     -  473s
     0     0 -391.14601    0  749 -419.07786 -391.14601  6.67%     -  493s
     0     0 -391.27254    0  806 -419.07786 -391.27254  6.63%     -  514s
     0     0 -392.63204    0  799 -419.07786 -392.63204  6.31%     -  536s
     0     0 -392.63204    0  744 -419.07786 -392.63204  6.31%     -  555s
     0     0 -392.97549    0  635 -419.07786 -392.97549  6.23%     -  578s
     0     0 -392.97549    0  648 -419.07786 -392.97549  6.23%     -  595s
     0     0 -394.28061    0  756 -419.07786 -394.28061  5.92%     -  617s
     0     0 -394.33499    0  691 -419.07786 -394.33499  5.90%     -  639s
     0     0 -394.33499    0  694 -419.07786 -394.33499  5.90%     -  648s
     0     0 -394.60689    0  652 -419.07786 -394.60689  5.84%     -  669s
     0     0 -394.60689    0  577 -419.07786 -394.60689  5.84%     -  690s
     0     0 -395.15069    0  760 -419.07786 -395.15069  5.71%     -  711s
     0     0 -395.15069    0  688 -419.07786 -395.15069  5.71%     -  731s
     0     0 -395.33510    0  763 -419.07786 -395.33510  5.67%     -  751s
     0     0 -395.38224    0  768 -419.07786 -395.38224  5.65%     -  769s
     0     0 -395.45475    0  772 -419.07786 -395.45475  5.64%     -  780s
     0     0 -395.46704    0  767 -419.07786 -395.46704  5.63%     -  789s
     0     0 -395.48628    0  766 -419.07786 -395.48628  5.63%     -  798s
     0     0 -395.48628    0  769 -419.07786 -395.48628  5.63%     -  805s
     0     0 -396.23829    0  653 -419.07786 -396.23829  5.45%     -  819s
     0     0 -397.04674    0  719 -419.07786 -397.04674  5.26%     -  844s
     0     0 -397.12841    0  757 -419.07786 -397.12841  5.24%     -  856s
     0     0 -397.36146    0  754 -419.07786 -397.36146  5.18%     -  867s
     0     0 -397.36146    0  756 -419.07786 -397.36146  5.18%     -  875s
     0     0 -399.01090    0  801 -419.07786 -399.01090  4.79%     -  902s
     0     0 -399.31982    0  801 -419.07786 -399.31982  4.71%     -  923s
     0     0 -399.50109    0  805 -419.07786 -399.50109  4.67%     -  935s
     0     0 -399.50109    0  810 -419.07786 -399.50109  4.67%     -  943s
     0     0 -400.04489    0  625 -419.07786 -400.04489  4.54%     -  965s
     0     0 -400.67932    0  755 -419.07786 -400.67932  4.39%     -  985s
     0     0 -400.78643    0  804 -419.07786 -400.78643  4.36%     -  997s
     0     0 -400.78643    0  603 -419.07786 -400.78643  4.36%     - 1006s
     0     0 -401.67628    0  814 -419.07786 -401.67628  4.15%     - 1027s
     0     0 -402.03882    0  695 -419.07786 -402.03882  4.07%     - 1052s
     0     0 -402.03882    0  724 -419.07786 -402.03882  4.07%     - 1063s
     0     0 -402.03882    0  792 -419.07786 -402.03882  4.07%     - 1080s
     0     0 -402.03882    0  808 -419.07786 -402.03882  4.07%     - 1100s
     0     0 -402.40135    0  816 -419.07786 -402.40135  3.98%     - 1123s
     0     0 -402.49198    0  819 -419.07786 -402.49198  3.96%     - 1145s
     0     0 -402.49198    0  824 -419.07786 -402.49198  3.96%     - 1154s
     0     0 -402.74976    0  839 -419.07786 -402.74976  3.90%     - 1176s
     0     0 -402.79409    0  831 -419.07786 -402.79409  3.89%     - 1199s
     0     0 -402.81501    0  849 -419.07786 -402.81501  3.88%     - 1210s
     0     0 -403.26923    0  823 -419.07786 -403.26923  3.77%     - 1235s
     0     0 -404.66718    0  883 -419.07786 -404.66718  3.44%     - 1272s
     0     0 -404.66718    0  881 -419.07786 -404.66718  3.44%     - 1283s
     0     0 -404.80857    0  836 -419.07786 -404.80857  3.40%     - 1303s
     0     0 -404.93908    0  828 -419.07786 -404.93908  3.37%     - 1326s
     0     0 -404.95490    0  839 -419.07786 -404.95490  3.37%     - 1338s
     0     0 -404.95928    0  839 -419.07786 -404.95928  3.37%     - 1349s
     0     0 -404.96497    0  841 -419.07786 -404.96497  3.37%     - 1361s
     0     0 -404.96497    0  842 -419.07786 -404.96497  3.37%     - 1370s
     0     0 -406.75174    0  801 -419.07786 -406.75174  2.94%     - 1391s
     0     0 -406.80353    0  819 -419.07786 -406.80353  2.93%     - 1410s
     0     0 -406.89676    0  777 -419.07786 -406.89676  2.91%     - 1424s
     0     0 -406.89676    0  778 -419.07786 -406.89676  2.91%     - 1436s
     0     0 -407.26965    0  785 -419.07786 -407.26965  2.82%     - 1459s
     0     0 -407.26965    0  767 -419.07786 -407.26965  2.82%     - 1478s
     0     0 -408.20188    0  705 -419.07786 -408.20188  2.60%     - 1502s
     0     0 -408.32797    0  792 -419.07786 -408.32797  2.57%     - 1527s
     0     0 -408.33371    0  843 -419.07786 -408.33371  2.56%     - 1543s
     0     0 -408.35363    0  843 -419.07786 -408.35363  2.56%     - 1555s
     0     0 -408.35725    0  840 -419.07786 -408.35725  2.56%     - 1565s
     0     0 -408.35725    0  841 -419.07786 -408.35725  2.56%     - 1575s
     0     0 -408.85443    0  828 -419.07786 -408.85443  2.44%     - 1605s
     0     0 -409.14250    0  831 -419.07786 -409.14250  2.37%     - 1630s
     0     0 -409.17126    0  837 -419.07786 -409.17126  2.36%     - 1643s
     0     0 -409.17126    0  793 -419.07786 -409.17126  2.36%     - 1653s
     0     0 -409.17126    0  820 -419.07786 -409.17126  2.36%     - 1668s
     0     0 -409.17126    0  838 -419.07786 -409.17126  2.36%     - 1683s
     0     0 -409.79011    0  836 -419.07786 -409.79011  2.22%     - 1704s
     0     0 -409.97238    0  793 -419.07786 -409.97238  2.17%     - 1725s
     0     0 -409.97238    0  798 -419.07786 -409.97238  2.17%     - 1734s
     0     0 -410.37707    0  792 -419.07786 -410.37707  2.08%     - 1759s
     0     0 -410.37707    0  830 -419.07786 -410.37707  2.08%     - 1778s
     0     0 -410.92087    0  785 -419.07786 -410.92087  1.95%     - 1802s
     0     0 -410.92087    0  769 -419.07786 -410.92087  1.95%     - 1818s
     0     0 -411.10214    0  750 -419.07786 -411.10214  1.90%     - 1838s
     0     0 -411.37404    0  751 -419.07786 -411.37404  1.84%     - 1856s
     0     0 -411.39216    0  830 -419.07786 -411.39216  1.83%     - 1867s
     0     0 -411.46467    0  827 -419.07786 -411.46467  1.82%     - 1878s
     0     0 -411.46467    0  830 -419.07786 -411.46467  1.82%     - 1887s
     0     0 -411.50495    0  834 -419.07786 -411.50495  1.81%     - 1907s
     0     0 -411.56825    0  832 -419.07786 -411.56825  1.79%     - 1923s
     0     0 -411.72362    0  831 -419.07786 -411.72362  1.75%     - 1934s
     0     0 -411.75470    0  838 -419.07786 -411.75470  1.75%     - 1946s
     0     0 -411.75470    0  846 -419.07786 -411.75470  1.75%     - 1955s
     0     0 -412.29636    0  820 -419.07786 -412.29636  1.62%     - 1976s
     0     0 -412.93119    0  816 -419.07786 -412.93119  1.47%     - 1994s
     0     0 -412.95196    0  822 -419.07786 -412.95196  1.46%     - 2004s
     0     0 -412.95653    0  813 -419.07786 -412.95653  1.46%     - 2011s
     0     0 -412.97785    0  711 -419.07786 -412.97785  1.46%     - 2021s
     0     0 -412.97785    0  715 -419.07786 -412.97785  1.46%     - 2029s
     0     0 -412.97785    0  712 -419.07786 -412.97785  1.46%     - 2044s
     0     0 -412.97785    0  712 -419.07786 -412.97785  1.46%     - 2056s
     0     0 -412.97785    0  718 -419.07786 -412.97785  1.46%     - 2068s
     0     0 -412.97785    0  715 -419.07786 -412.97785  1.46%     - 2081s
     0     0 -413.05982    0  617 -419.07786 -413.05982  1.44%     - 2159s
     0     0 -413.05982    0  633 -419.07786 -413.05982  1.44%     - 2172s
     0     0 -413.05982    0  688 -419.07786 -413.05982  1.44%     - 2189s
     0     0 -413.05982    0  698 -419.07786 -413.05982  1.44%     - 2203s
     0     0 -413.44212    0  779 -419.07786 -413.44212  1.34%     - 2263s
     0     0 -413.50211    0  796 -419.07786 -413.50211  1.33%     - 2277s
     0     0 -413.51584    0  796 -419.07786 -413.51584  1.33%     - 2286s
     0     0 -413.51584    0  798 -419.07786 -413.51584  1.33%     - 2295s
     0     0 -413.57945    0  762 -419.07786 -413.57945  1.31%     - 2315s
     0     0 -413.57945    0  806 -419.07786 -413.57945  1.31%     - 2329s
     0     0 -413.82113    0  813 -419.07786 -413.82113  1.25%     - 2351s
     0     0 -413.82113    0  789 -419.07786 -413.82113  1.25%     - 2366s
     0     0 -413.82113    0  803 -419.07786 -413.82113  1.25%     - 2385s
     0     0 -413.82113    0  782 -419.07786 -413.82113  1.25%     - 2440s
     0     0 -413.82113    0  299 -419.07786 -413.82113  1.25%     - 2565s
     0     0 -413.82113    0  318 -419.07786 -413.82113  1.25%     - 2570s
     0     0 -413.82113    0  317 -419.07786 -413.82113  1.25%     - 2573s
     0     0 -413.82113    0  313 -419.07786 -413.82113  1.25%     - 2574s
     0     0 -413.82113    0  308 -419.07786 -413.82113  1.25%     - 2575s
     0     0 -413.82113    0  309 -419.07786 -413.82113  1.25%     - 2576s
     0     0 -414.88663    0  277 -419.07786 -414.88663  1.00%     - 2578s
     0     0 -415.03483    0  267 -419.07786 -415.03483  0.96%     - 2580s
     0     0 -415.03821    0  274 -419.07786 -415.03821  0.96%     - 2581s
     0     0 -415.27127    0  158 -419.07786 -415.27127  0.91%     - 2582s
     0     0 -415.27127    0  190 -419.07786 -415.27127  0.91%     - 2584s
     0     0 -415.27127    0  142 -419.07786 -415.27127  0.91%     - 2586s
     0     0 -415.27127    0  129 -419.07786 -415.27127  0.91%     - 2588s
     0     0 -415.27127    0  126 -419.07786 -415.27127  0.91%     - 2590s
     0     0 -415.27127    0  165 -419.07786 -415.27127  0.91%     - 2591s
     0     0 -415.27127    0  143 -419.07786 -415.27127  0.91%     - 2593s
     0     0 -415.27127    0  171 -419.07786 -415.27127  0.91%     - 2594s
     0     0 -415.27127    0  131 -419.07786 -415.27127  0.91%     - 2598s
     0     0 -415.27127    0  155 -419.07786 -415.27127  0.91%     - 2600s
     0     0 -415.27127    0  117 -419.07786 -415.27127  0.91%     - 2603s
     0     0 -415.27127    0  166 -419.07786 -415.27127  0.91%     - 2604s
     0     0 -415.27127    0  159 -419.07786 -415.27127  0.91%     - 2608s
     0     0 -415.27127    0  147 -419.07786 -415.27127  0.91%     - 2610s
     0     0 -415.27127    0  139 -419.07786 -415.27127  0.91%     - 2614s
     0     0     cutoff    0      -419.07786 -419.07786  0.00%     - 2622s

Cutting planes:
  Gomory: 5
  Zero half: 87

Explored 1 nodes (106134 simplex iterations) in 2623.23 seconds
Thread count was 1 (of 80 available processors)

Solution count 3: -419.078 -419.078 -20190.2 

Optimal solution found (tolerance 1.00e-04)
Best objective -4.190778615189e+02, best bound -4.190778615189e+02, gap 0.0000%
